Route #1: 15 28 51
Route #2: 20 40 61 29 43 8 10 7
Route #3: 55 33 58 17 50 57 32 6
Route #4: 59 26 35 49 25 60 56
Route #5: 14 5 9 54 3 39 27 23 41 21 4 11 31 34
Route #6: 38 19 30 1 18 13 12 48 53
Route #7: 46 42 24 47 45
Route #8: 52 2 44 22 37 16 36
Cost 1288
Time 0.122532
